100
1000
200
199
199
198
198
198
198
198
197
196
195
195
195
195
195
194
193
192
191
191
191
190
190
190
189
189
189
188
187
187
187
186
185
185
184
184
184
183
182
182
181
181
181
180
179
179
177
177
177
176
176
175
174
174
173
173
172
171
171
171
170
170
169
168
167
167
167
167
166
166
165
165
164
164
163
163
163
163
162
162
162
161
160
159
158
158
157
157
157
157
156
156
154
153
153
152
152
152
150
150
